berlin52

VEHICLE
NUMBER     CAPACITY
  25         200

CUSTOMER
CUST NO.  XCOORD.   YCOORD.    DEMAND   READY TIME  DUE DATE   SERVICE   TIME

   0 565 575  0 0 99999999 0
   1 25 185 0 0 99999999 0
   2 345 750 0 0 99999999 0
   3 945 685 0 0 99999999 0
   4 845 655 0 0 99999999 0
   5 880 660 0 0 99999999 0
   6 25 230 0 0 99999999 0
   7 525 1000 0 0 99999999 0
   8 580 1175 0 0 99999999 0
   9 650 1130 0 0 99999999 0
   10 1605 620  0 0 99999999 0
   11 1220 580 0 0 99999999 0
   12 1465 200 0 0 99999999 0
   13 1530 5 0 0 99999999 0
   14 845 680 0 0 99999999 0
   15 725 370 0 0 99999999 0
   16 145 665 0 0 99999999 0
   17 415 635 0 0 99999999 0
   18 510 875   0 0 99999999 0
   19 560 365 0 0 99999999 0
   20 300 465 0 0 99999999 0
   21 520 585 0 0 99999999 0
   22 480 415 0 0 99999999 0
   23 835 625 0 0 99999999 0
   24 975 580 0 0 99999999 0
   25 1215 245 0 0 99999999 0
   26 1320 315 0 0 99999999 0
   27 1250 400 0 0 99999999 0
   28 660 180 0 0 99999999 0
   29 410 250 0 0 99999999 0
   30 420 555 0 0 99999999 0
   31 575 665 0 0 99999999 0
   32 1150 1160 0 0 99999999 0
   33 700 580 0 0 99999999 0
   34 685 595 0 0 99999999 0
   35 685 610 0 0 99999999 0
   36 770 610 0 0 99999999 0
   37 795 645 0 0 99999999 0
   38 720 635 0 0 99999999 0
   39 760 650 0 0 99999999 0
   40 475 960 0 0 99999999 0
   41 95 260 0 0 99999999 0
   42 875 920 0 0 99999999 0
   43 700 500 0 0 99999999 0
   44 555 815 0 0 99999999 0
   45 830 485 0 0 99999999 0
   46 1170 65 0 0 99999999 0
   47 830 610 0 0 99999999 0
   48 605 625 0 0 99999999 0
   49 595 360 0 0 99999999 0
   50 1340 725 0 0 99999999 0
   51 1740 245 0 0 99999999 0
